W=7;
H=7;

MAX_TIME=W*H;
MAX_TRACKS=18;

TARGET=(4,7);

TRAINS=[(4,2,RIGHT),(2,6,LEFT),(4,5,LEFT),(6,6,LEFT)];
DECOYS=[];

INIT_POS=[
(1,3,ROCK),
(2,3,STRAIGHT_RL),
(2,6,STRAIGHT_RL),
(4,2,STRAIGHT_RL),
(4,5,STRAIGHT_RL),
(4,6,ESWITCH_T_D_R),
(4,7,STRAIGHT_RL),
(6,3,STRAIGHT_RL),
(6,6,STRAIGHT_RL),
(7,3,ROCK),
];
TUNNEL_PAIRS=[];

GATES=[];
ACTIVATIONS=[];

DSWITCHES=[];
STATIONS=[
  (2,3,4),
  (6,3,2),
];
